SATISFIABLE
Some World View: in={'$not$ n_eligible(paul)', '$not$ n_eligible(sam)', '$not$ n_eligible(peter)', '$not$ n_eligible(tom)', '$not$ n_eligible(mary)', '$not$ eligible(van)', '$not$ n_eligible(mike)', '$not$ eligible(pat)', '$not$ n_eligible(tim)', '$not$ n_eligible(nancy)', '$not$ n_eligible(pat)', '$not$ eligible(peter)', '$not$ eligible(tom)', '$not$ eligible(mike)'}, out={'$not$ eligible(mary)', '$not$ n_eligible(van)', '$not$ eligible(tim)', '$not$ eligible(paul)', '$not$ eligible(sam)', '$not$ eligible(nancy)'}
  Some Answer Set of this World View:
    eligible(mary)
    eligible(nancy)
    eligible(paul)
    eligible(peter)
    eligible(sam)
    eligible(tim)
    fairGPA(mary)
    fairGPA(mike)
    fairGPA(pat)
    fairGPA(paul)
    highGPA(nancy)
    highGPA(peter)
    highGPA(sam)
    highGPA(tim)
    interview(mike)
    interview(pat)
    interview(peter)
    interview(tom)
    minority(mary)
    minority(paul)
    minority(sam)
    minority(van)
    n_eligible(tom)
    n_eligible(van)
    n_fairGPA(tom)
    n_fairGPA(van)
    n_highGPA(tom)
    n_highGPA(van)
